p tw 20 53
0 1
0 15
0 6
0 18
0 4
0 9
0 3
1 11
1 5
1 7
1 17
1 4
1 9
1 13
2 3
2 14
2 18
3 8
3 7
3 6
3 13
3 17
4 5
4 7
4 6
4 12
4 10
5 9
5 12
5 13
6 7
6 13
6 8
7 9
7 8
8 11
8 14
9 13
9 15
10 11
10 19
10 13
10 18
10 14
11 13
11 15
11 19
12 13
13 19
13 14
14 18
16 17
18 19
